n=150;
k_min=3;
k_max=3;
M=[| 0.12, 0.94, 0.0
 | 0.12, 0.96, 0.0
 | 0.12, 0.98, 0.0
 | 0.12, 1.0, 0.0
 | 0.12, 0.94, 0.0
 | 0.12, 0.7, 0.0
 | 0.12, 0.96, 0.0
 | 0.12, 0.88, 0.0
 | 0.12, 0.98, 0.0
 | 0.12, 0.96, 0.0
 | 0.12, 0.82, 0.0
 | 0.12, 1.0, 0.0
 | 0.12, 0.98, 0.0
 | 0.12, 0.98, 0.0
 | 0.12, 0.7, 0.0
 | 0.12, 0.7, 0.0
 | 0.12, 0.7, 0.0
 | 0.12, 0.94, 0.0
 | 0.12, 0.7, 0.0
 | 0.12, 0.92, 0.0
 | 0.12, 1.0, 0.0
 | 0.12, 1.0, 0.0
 | 0.12, 0.92, 0.0
 | 0.12, 0.94, 0.0
 | 0.12, 0.98, 0.0
 | 0.12, 0.96, 0.0
 | 0.12, 0.94, 0.0
 | 0.12, 0.98, 0.0
 | 0.0, 0.94, 0.0
 | 0.12, 1, 0.0
 | 0.12, 0.96, 0.0
 | 0.12, 1, 0.0
 | 0.12, 0.7, 0.0
 | 0.12, 0.7, 0.0
 | 0.12, 0.96, 0.0
 | 0.0, 0.9, 0.0
 | 0.12, 0.9, 0.0
 | 0.12, 0.96, 0.0
 | 0.12, 0.98, 0.0
 | 0.12, 0.94, 0.0
 | 0.12, 0.92, 0.0
 | 0.12, 1.0, 0.0
 | 0.12, 0.98, 0.0
 | 0.12, 0.94, 0.0
 | 0.12, 0.92, 0.0
 | 0.12, 0.98, 0.0
 | 0.12, 0.92, 0.0
 | 0.12, 0.98, 0.0
 | 0.12, 1, 0.0
 | 0.12, 0.98, 0.0
 | 1.0, 0.0, 0.12
 | 0.96, 0.0, 0.12
 | 1.0, 0.0, 0.24
 | 0.98, 0.0, 0.12
 | 0.98, 0.0, 0.12
 | 1.0, 0.0, 0.12
 | 0.94, 0.0, 0.12
 | 1.0, 0.12, 0.0
 | 1.0, 0.0, 0.12
 | 0.98, 0.0, 0.12
 | 0.88, 0.0, 0.12
 | 1.0, 0.0, 0.12
 | 0.94, 0.0, 0.12
 | 1.0, 0.0, 0.12
 | 1.0, 0.0, 0.12
 | 1.0, 0.0, 0.12
 | 0.94, 0.0, 0.12
 | 0.98, 0.0, 0.12
 | 0.74, 0.0, 0.12
 | 0.98, 0.0, 0.12
 | 1, 0.0, 0.12
 | 0.86, 0.0, 0.12
 | 0.8, 0.0, 0.12
 | 1.0, 0.0, 0.12
 | 0.9, 0.0, 0.12
 | 1.0, 0.0, 0.12
 | 1.0, 0.0, 0.12
 | 0.98, 0.0, 0.24
 | 0.92, 0.0, 0.12
 | 0.94, 0.0, 0.12
 | 0.94, 0.0, 0.0
 | 0.94, 0.0, 0.12
 | 1.0, 0.0, 0.0
 | 0.92, 0.0, 0.12
 | 1, 0.0, 0.12
 | 0.94, 0.0, 0.12
 | 1.0, 0.0, 0.12
 | 0.84, 0.0, 0.12
 | 1.0, 0.0, 0.12
 | 0.94, 0.0, 0.12
 | 1.0, 0.0, 0.12
 | 0.98, 0.0, 0.12
 | 1.0, 0.0, 0.12
 | 1.0, 0.12, 0.0
 | 1.0, 0.0, 0.12
 | 0.98, 0.0, 0.12
 | 0.98, 0.0, 0.12
 | 0.94, 0.0, 0.12
 | 1.0, 0.12, 0.0
 | 1.0, 0.0, 0.12
 | 0.9, 0.0, 0.32
 | 0.94, 0.0, 0.12
 | 0.44, 0.0, 0.8
 | 0.88, 0.0, 0.32
 | 0.92, 0.0, 0.32
 | 0.32, 0.0, 1.0
 | 0.88, 0.0, 0.12
 | 0.32, 0.0, 0.96
 | 0.86, 0.0, 0.32
 | 0.38, 0.0, 0.9
 | 0.86, 0.0, 0.24
 | 0.5, 0.0, 0.24
 | 1.0, 0.0, 0.32
 | 0.94, 0.0, 0.12
 | 0.76, 0.0, 0.12
 | 0.94, 0.0, 0.32
 | 0.9, 0.0, 0.32
 | 0.32, 0.0, 0.96
 | 0.32, 0.0, 1.0
 | 0.84, 0.0, 0.12
 | 0.96, 0.0, 0.32
 | 0.94, 0.0, 0.12
 | 0.32, 0.0, 1.0
 | 0.94, 0.0, 0.12
 | 0.96, 0.0, 1
 | 0.38, 0.0, 0.86
 | 1.0, 0.0, 0.12
 | 0.98, 0.0, 0.12
 | 0.9, 0.0, 0.32
 | 0.44, 0.0, 0.8
 | 0.32, 0.0, 0.96
 | 0.32, 0.0, 0.96
 | 0.9, 0.0, 0.32
 | 0.9, 0.0, 0.12
 | 0.72, 0.0, 0.24
 | 0.32, 0.0, 1.0
 | 0.94, 0.0, 0.32
 | 0.9, 0.0, 0.32
 | 0.98, 0.0, 0.12
 | 1.0, 0.0, 0.32
 | 0.94, 0.0, 0.32
 | 0.98, 0.0, 0.32
 | 0.94, 0.0, 0.12
 | 0.96, 0.0, 0.32
 | 0.92, 0.0, 0.32
 | 0.98, 0.0, 0.32
 | 0.92, 0.0, 0.12
 | 0.82, 0.0, 0.24
 | 0.92, 0.0, 0.32
 | 0.94, 0.0, 0.12 |];
 P=[2, 2, 2, 2, 2, 2, 2, 2, 2, 2, 2, 2, 2, 2, 2, 2, 2, 2, 2, 2, 2, 2, 2, 2, 2, 2, 2, 2, 2, 2, 2, 2, 2, 2, 2, 2, 2, 2, 2, 2, 2, 2, 2, 2, 2, 2, 2, 2, 2, 2, 1, 1, 1, 1, 1, 1, 1, 1, 1, 1, 1, 1, 1, 1, 1, 1, 1, 1, 1, 1, 1, 1, 1, 1, 1, 1, 1, 1, 1, 1, 1, 1, 1, 1, 1, 1, 1, 1, 1, 1, 1, 1, 1, 1, 1, 1, 1, 1, 1, 1, 1, 1, 3, 1, 1, 3, 1, 3, 1, 3, 1, 1, 1, 1, 1, 1, 1, 3, 3, 1, 1, 1, 3, 1, 1, 3, 1, 1, 1, 3, 3, 3, 1, 1, 1, 3, 1, 1, 1, 1, 1, 1, 1, 1, 1, 1, 1, 1, 1, 1 ];